/*********************************************
 * OPL 12.6.0.0 Data
 * Author: Adrian Rodriguez Bazaga, Pau Rodriguez Esmerats
 * Creation Date: 06/12/2017 at 23:03:11
 *********************************************/

nNurses=283;
maxConsec=2;
maxPresence=7;
maxHours=5;
minHours=1;
hours=24;
demand= [52 50 71 69 50 71 69 53 45 24 6 7 7 9 7 6 5 2 1 2 45 82 37 73  ];
